1
1000
120
498 1
496 1
493 1
491 1
491 1
485 1
483 1
465 1
448 1
444 1
433 1
432 1
429 1
427 1
424 1
421 1
421 1
414 1
408 1
406 1
403 1
402 1
399 1
398 1
396 1
393 1
392 1
389 1
389 1
383 1
381 1
380 1
375 1
372 1
372 1
368 1
367 1
366 1
365 1
365 1
363 1
363 1
363 1
357 1
353 1
353 1
351 1
347 1
340 1
338 1
336 1
335 1
331 1
330 1
329 1
328 1
328 1
325 1
324 1
322 1
317 1
316 1
316 1
313 1
311 1
311 1
308 1
308 1
303 1
303 1
303 1
298 1
296 1
296 1
295 1
295 1
294 1
292 1
289 1
289 1
283 1
282 1
280 1
279 1
277 1
276 1
275 1
271 1
268 1
268 1
268 1
266 1
265 1
265 1
265 1
262 1
262 1
260 1
260 1
260 1
259 1
259 1
259 1
259 1
257 1
256 1
255 1
254 1
254 1
253 1
253 1
252 1
252 1
251 1
251 1
251 1
250 1
250 1
250 1
250 1
